13350.0
1 0 1 0 0 1 0 1 1 1 0 1 0 1 1 0 1 1 0 1 1 0 0 0 1 1 0 1 1 1 
20 11 13 2 20 5 2 24 14 17 9 16 8 20 19 14 14 17 5 11 2 0 5 17 5 8 19 24 5 24 5 25 13 25 20 20 24 24 0 14 0 14 24 28 24 14 0 13 27 8 29 14 14 5 20 20 17 27 11 14 0 5 20 11 11 11 9 0 24 9 20 20 11 17 24 8 24 20 14 24 20 7 13 17 17 17 17 7 20 5 2 24 17 11 17 9 2 2 25 16 8 17 17 25 2 29 17 11 14 28 14 14 2 11 11 25 24 24 24 24 5 8 25 13 16 0 5 24 0 29 0 11 24 5 8 14 17 5 20 17 0 8 20 14 8 25 25 5 2 5 